Data path: /scratch/opt/lxu/CFLG/benchmarks/random_A
Instance: r_15_0.2_22.txt
Result path: /scratch/opt/lxu/CFLG/results/random_A
Solver: Gurobi
Time limit: 3600
Formulation: LEFPV2
Cover: Large
julia --project=. src/main.jl /scratch/opt/lxu/CFLG/benchmarks/random_A r_15_0.2_22.txt /scratch/opt/lxu/CFLG/results/random_A Gurobi 3600 LEFPV2 Large
The latest version of Julia in the `release` channel is 1.11.5+0.x64.linux.gnu. You currently have `1.11.4+0.x64.linux.gnu` installed. Run:

  juliaup update

in your terminal shell to install Julia 1.11.5+0.x64.linux.gnu and update the `release` channel to that version.
/scratch/opt/lxu/CFLG/benchmarks/random_A Gurobi 3600.0 /scratch/opt/lxu/CFLG/results/random_A r_15_0.2_22.txt LEFPV2 Large
/scratch/opt/lxu/CFLG/benchmarks/random_A/r_15_0.2_22.txt

 read graph
data loaded

problem_graph/original graph: node: 15/15 edge: 22/22 dlt: 1.192558056712511 break_avg_len: 0.5962790283562555 break_max_len: 0.9759077962648577elapsed CPU time: 0.037637 seconds
Set parameter TokenServer to value "solice01.zib.de"
Set parameter Threads to value 1
Set parameter OutputFlag to value 1
Set parameter MIPGap to value 0.0001
Set parameter MIPGapAbs to value 1
Set parameter TimeLimit to value 3599.962363
formulation:LEFPV20 22 15
Set parameter PreCrush to value 1

 model loaded

Gurobi Optimizer version 12.0.1 build v12.0.1rc0 (linux64 - "Debian GNU/Linux 12 (bookworm)")

CPU model: Intel(R) Xeon(R) Gold 5122 CPU @ 3.60GHz, instruction set [SSE2|AVX|AVX2|AVX512]
Thread count: 8 physical cores, 16 logical processors, using up to 1 threads

Non-default parameters:
TimeLimit  3599.962363
MIPGapAbs  1
PreCrush  1
Threads  1

Optimize a model with 797 rows, 440 columns and 2294 nonzeros
Model fingerprint: 0x415e4c75
Variable types: 81 continuous, 359 integer (359 binary)
Coefficient statistics:
  Matrix range     [1e-06, 2e+00]
  Objective range  [1e+00, 1e+00]
  Bounds range     [3e-01, 2e+00]
  RHS range        [3e-01, 4e+00]
Found heuristic solution: objective 10.0000000
Presolve removed 225 rows and 100 columns
Presolve time: 0.05s
Presolved: 572 rows, 340 columns, 2928 nonzeros
Variable types: 36 continuous, 304 integer (304 binary)

Root relaxation: objective 2.000000e+00, 208 iterations, 0.00 seconds (0.00 work units)

    Nodes    |    Current Node    |     Objective Bounds      |     Work
 Expl Unexpl |  Obj  Depth IntInf | Incumbent    BestBd   Gap | It/Node Time

     0     0    2.00000    0   36   10.00000    2.00000  80.0%     -    0s
H    0     0                       6.0000000    2.00000  66.7%     -    0s
H    0     0                       5.0000000    2.00000  60.0%     -    0s
     0     0    2.00000    0   51    5.00000    2.00000  60.0%     -    0s
H    0     0                       4.0000000    2.00000  50.0%     -    0s
     0     0    2.00000    0   52    4.00000    2.00000  50.0%     -    0s
     0     0    2.00000    0   23    4.00000    2.00000  50.0%     -    0s
     0     0    2.00000    0   31    4.00000    2.00000  50.0%     -    0s
     0     0    2.00000    0   19    4.00000    2.00000  50.0%     -    0s
H    0     0                       3.0000000    2.00000  33.3%     -    0s

Cutting planes:
  Gomory: 2
  Cover: 5
  Implied bound: 4
  Clique: 3
  MIR: 6
  Flow cover: 1
  GUB cover: 6
  RLT: 3

Explored 1 nodes (1316 simplex iterations) in 0.12 seconds (0.07 work units)
Thread count was 1 (of 16 available processors)

Solution count 5: 3 4 5 ... 10

Optimal solution found (tolerance 1.00e-04)
Best objective 3.000000000000e+00, best bound 2.000000000000e+00, gap 33.3333%

User-callback calls 802, time in user-callback 0.86 sec

 sepatime0
Stat(MathOptInterface.OPTIMAL, 3.0, 2.0000000000000004, 0.3333333333333332, 0.0, 0.037637, 0.12375497817993164, 1, Main.CFLG.LEFPV2, "", #undef)
